c graph3
p edge 20 42
e 1 20
e 2 20
e 3 9
e 4 4
e 5 10
e 6 6
e 7 7
e 8 15
e 9 18
e 10 12
e 11 16
e 12 19
e 13 18
e 14 4
e 15 5
e 16 16
e 17 14
e 18 19
e 19 14
e 20 17
e 5 8
e 2 3
e 19 10
e 18 14
e 20 19
e 2 11
e 19 3
e 1 19
e 15 13
e 1 7
e 8 20
e 15 15
e 20 12
e 20 6
e 1 3
e 14 15
e 6 12
e 11 19
e 14 6
e 12 11
e 13 3
e 14 16
